c b=2,c=773
p cnf 14 24
2 -4 0
2 -6 0
1 2 -12 0
2 -13 0
-2 4 0
-2 6 0
1 -2 12 0
1 -2 13 0
1 -3 0
1 -5 0
1 -11 0
1 -14 0
-1 2 12 0
2 -14 0
-1 -2 -12 0
-1 -2 14 0
-1 3 0
-1 5 0
-1 11 0
-1 -13 0
-7 0
-8 0
-9 0
-10 0
